.LKH/LKH-output
PARAMETER_FILE = ./.LKH/lkh.par
