.LKH/LKH-output.txt
PARAMETER_FILE = lkh.par
Reading PROBLEM_FILE: "input.tsp" ... done
ASCENT_CANDIDATES = 9
BACKBONE_TRIALS = 0
BACKTRACKING = NO
# CANDIDATE_FILE =
CANDIDATE_SET_TYPE = ALPHA
EXCESS = 0.1
EXTRA_CANDIDATES = 0 
EXTRA_CANDIDATE_SET_TYPE = QUADRANT
GAIN23 = YES
GAIN_CRITERION = YES
INITIAL_PERIOD = 100
INITIAL_STEP_SIZE = 1
INITIAL_TOUR_ALGORITHM = WALK
# INITIAL_TOUR_FILE = 
INITIAL_TOUR_FRACTION = 1.000
# INPUT_TOUR_FILE = 
KICK_TYPE = 0
KICKS = 1
# MAX_BREADTH =
MAX_CANDIDATES = 5 
MAX_SWAPS = 10
MAX_TRIALS = 10
# MERGE_TOUR_FILE =
MOVE_TYPE = 5
NONSEQUENTIAL_MOVE_TYPE = 9
# OPTIMUM =
# OUTPUT_TOUR_FILE = 
PATCHING_A = 2 
PATCHING_C = 3 
# PI_FILE = 
# POPULATION_SIZE = 0
PRECISION = 16
PROBLEM_FILE = input.tsp
RESTRICTED_SEARCH = YES
RUNS = 10
SEED = 1
STOP_AT_OPTIMUM = YES
SUBGRADIENT = YES
# SUBPROBLEM_SIZE =
# SUBPROBLEM_TOUR_FILE = 
SUBSEQUENT_MOVE_TYPE = 5
SUBSEQUENT_PATCHING = YES
# TIME_LIMIT =
TOUR_FILE = output.sol
TRACE_LEVEL = 1

Lower bound = 132600.0, Ascent time = 0.00 sec.
Cand.min = 3, Cand.avg = 4.1, Cand.max = 5
Preprocessing time = 0.00 sec.
Writing TOUR_FILE: "output.sol" ... done
Successes/Runs = 1/0 
Cost.min = 132600, Cost.avg = 132600.00, Cost.max = 132600
Gap.min = 0.0000%, Gap.avg = 0.0000%, Gap.max = 0.0000%
Trials.min = 0, Trials.avg = 0.0, Trials.max = 0
Time.min = 0.00 sec., Time.avg = 0.00 sec., Time.max = 0.00 sec.
